50
129650

6312 7312.0
6891 7891.0
664 1664.0
4243 5243.0
8377 9377.0
7962 8962.0
6635 7635.0
4970 5970.0
7809 8809.0
5867 6867.0
9559 10559.0
3579 4579.0
8269 9269.0
2282 3282.0
4618 5618.0
2290 3290.0
1554 2554.0
4105 5105.0
8726 9726.0
9862 10862.0
2408 3408.0
5082 6082.0
1619 2619.0
1209 2209.0
5410 6410.0
7736 8736.0
9172 10172.0
1650 2650.0
5797 6797.0
7114 8114.0
5181 6181.0
3351 4351.0
9053 10053.0
7816 8816.0
7254 8254.0
8542 9542.0
4268 5268.0
1021 2021.0
8990 9990.0
231 1231.0
1529 2529.0
6535 7535.0
19 1019.0
8087 9087.0
5459 6459.0
3997 4997.0
5329 6329.0
1032 2032.0
3131 4131.0
9299 10299.0
